#definition

# set
set V := C1 C2 C3 C4 C5 ; 	# customer set
set F := F6 F7 F8 F6_1 F6_2 F7_1 F7_2 F8_1 F8_2 ;#recharging & battery swapping station
set D0 :=N0;
set Dσ :=Nσ;


# param
param CV := 200;    		# ECV fixed cost(Topic Given)
param C := 1000;   		# ECV max load
param Q := 60.63; 		# ECV/BSV battery level
param h := 1;     		# ECV consumption

param CB := 267;    		# BSV fixed cost(Topic Given)
param Qplun := 5;       # BSV max load(battery)
param hplun := 1;     	# BSV consumption
param W := 121.26;		# BSV battery level

param Ct := 10;    		# travel cost
param Cr := 100;    		# recharging cost
param lamda := 0.00;	# battery swap time
param Cb ;  	    # battery swap cost(BSS/BSV)
param n :=5;	   		# number of customers
param g :=1.47 ;     	# the recharging rate of ECV 



# customer demend
param m :=
N0 0
C1 14
C2 2
C3 8
C4 12
C5 25
F6 0
F7 0
F8 0
F6_1 0
F6_2 0
F7_1 0
F7_2 0
F8_1 0
F8_2 0
Nσ 0;

param e :=
N0 0
C1 817
C2 733
C3 0
C4 377
C5 0
F6 0
F7 0
F8 0
F6_1 0
F6_2 0
F7_1 0
F7_2 0
F8_1 0
F8_2 0
Nσ 0;

param l :=
N0 1000
C1 952
C2 870
C3 968
C4 434
C5 967
F6 1000
F7 1000
F8 1000
F6_1 1000
F6_2 1000
F7_1 1000
F7_2 1000
F8_1 1000
F8_2 1000
Nσ 1000;

param s :=
N0 0
C1 10
C2 10
C3 10
C4 10
C5 10
F6 0
F7 0
F8 0
F6_1 0
F6_2 0
F7_1 0
F7_2 0
F8_1 0
F8_2 0
Nσ 0;

param d : N0 C1 C2 C3 C4 C5 F6 F7 F8 F6_1 F6_2 F7_1 F7_2 F8_1 F8_2 Nσ :=
N0 0.0000 19.6977 30.4138 21.2132 15.8114 22.4722 0.0000 19.1050 19.0263 0.0000 0.0000 19.1050 19.1050 19.0263 19.0263 0.0000
C1 19.6977 0.0000 49.7293 40.2244 33.1361 27.6586 19.6977 38.2753 33.0151 19.6977 19.6977 38.2753 38.2753 33.0151 33.0151 19.6977
C2 30.4138 49.7293 0.0000 18.0278 18.0278 44.2719 30.4138 17.8885 32.2025 30.4138 30.4138 17.8885 17.8885 32.2025 32.2025 30.4138
C3 21.2132 40.2244 18.0278 0.0000 20.0000 27.2947 21.2132 2.2361 14.5602 21.2132 21.2132 2.2361 2.2361 14.5602 14.5602 21.2132
C4 15.8114 33.1361 18.0278 20.0000 0.0000 36.1248 15.8114 18.0278 27.7849 15.8114 15.8114 18.0278 18.0278 27.7849 27.7849 15.8114
C5 22.4722 27.6586 44.2719 27.2947 36.1248 0.0000 22.4722 26.6833 13.0000 22.4722 22.4722 26.6833 26.6833 13.0000 13.0000 22.4722
F6 0.0000 19.6977 30.4138 21.2132 15.8114 22.4722 0.0000 19.1050 19.0263 0.0000 0.0000 19.1050 19.1050 19.0263 19.0263 0.0000
F7 19.1050 38.2753 17.8885 2.2361 18.0278 26.6833 19.1050 0.0000 14.3178 19.1050 19.1050 0.0000 0.0000 14.3178 14.3178 19.1050
F8 19.0263 33.0151 32.2025 14.5602 27.7849 13.0000 19.0263 14.3178 0.0000 19.0263 19.0263 14.3178 14.3178 0.0000 0.0000 19.0263
F6_1 0.0000 19.6977 30.4138 21.2132 15.8114 22.4722 0.0000 19.1050 19.0263 0.0000 0.0000 19.1050 19.1050 19.0263 19.0263 0.0000
F6_2 0.0000 19.6977 30.4138 21.2132 15.8114 22.4722 0.0000 19.1050 19.0263 0.0000 0.0000 19.1050 19.1050 19.0263 19.0263 0.0000
F7_1 19.1050 38.2753 17.8885 2.2361 18.0278 26.6833 19.1050 0.0000 14.3178 19.1050 19.1050 0.0000 0.0000 14.3178 14.3178 19.1050
F7_2 19.1050 38.2753 17.8885 2.2361 18.0278 26.6833 19.1050 0.0000 14.3178 19.1050 19.1050 0.0000 0.0000 14.3178 14.3178 19.1050
F8_1 19.0263 33.0151 32.2025 14.5602 27.7849 13.0000 19.0263 14.3178 0.0000 19.0263 19.0263 14.3178 14.3178 0.0000 0.0000 19.0263
F8_2 19.0263 33.0151 32.2025 14.5602 27.7849 13.0000 19.0263 14.3178 0.0000 19.0263 19.0263 14.3178 14.3178 0.0000 0.0000 19.0263
Nσ 0.0000 19.6977 30.4138 21.2132 15.8114 22.4722 0.0000 19.1050 19.0263 0.0000 0.0000 19.1050 19.1050 19.0263 19.0263 0.0000
;

param t : N0 C1 C2 C3 C4 C5 F6 F7 F8 F6_1 F6_2 F7_1 F7_2 F8_1 F8_2 Nσ :=
N0 0.0000 19.6977 30.4138 21.2132 15.8114 22.4722 0.0000 19.1050 19.0263 0.0000 0.0000 19.1050 19.1050 19.0263 19.0263 0.0000
C1 19.6977 0.0000 49.7293 40.2244 33.1361 27.6586 19.6977 38.2753 33.0151 19.6977 19.6977 38.2753 38.2753 33.0151 33.0151 19.6977
C2 30.4138 49.7293 0.0000 18.0278 18.0278 44.2719 30.4138 17.8885 32.2025 30.4138 30.4138 17.8885 17.8885 32.2025 32.2025 30.4138
C3 21.2132 40.2244 18.0278 0.0000 20.0000 27.2947 21.2132 2.2361 14.5602 21.2132 21.2132 2.2361 2.2361 14.5602 14.5602 21.2132
C4 15.8114 33.1361 18.0278 20.0000 0.0000 36.1248 15.8114 18.0278 27.7849 15.8114 15.8114 18.0278 18.0278 27.7849 27.7849 15.8114
C5 22.4722 27.6586 44.2719 27.2947 36.1248 0.0000 22.4722 26.6833 13.0000 22.4722 22.4722 26.6833 26.6833 13.0000 13.0000 22.4722
F6 0.0000 19.6977 30.4138 21.2132 15.8114 22.4722 0.0000 19.1050 19.0263 0.0000 0.0000 19.1050 19.1050 19.0263 19.0263 0.0000
F7 19.1050 38.2753 17.8885 2.2361 18.0278 26.6833 19.1050 0.0000 14.3178 19.1050 19.1050 0.0000 0.0000 14.3178 14.3178 19.1050
F8 19.0263 33.0151 32.2025 14.5602 27.7849 13.0000 19.0263 14.3178 0.0000 19.0263 19.0263 14.3178 14.3178 0.0000 0.0000 19.0263
F6_1 0.0000 19.6977 30.4138 21.2132 15.8114 22.4722 0.0000 19.1050 19.0263 0.0000 0.0000 19.1050 19.1050 19.0263 19.0263 0.0000
F6_2 0.0000 19.6977 30.4138 21.2132 15.8114 22.4722 0.0000 19.1050 19.0263 0.0000 0.0000 19.1050 19.1050 19.0263 19.0263 0.0000
F7_1 19.1050 38.2753 17.8885 2.2361 18.0278 26.6833 19.1050 0.0000 14.3178 19.1050 19.1050 0.0000 0.0000 14.3178 14.3178 19.1050
F7_2 19.1050 38.2753 17.8885 2.2361 18.0278 26.6833 19.1050 0.0000 14.3178 19.1050 19.1050 0.0000 0.0000 14.3178 14.3178 19.1050
F8_1 19.0263 33.0151 32.2025 14.5602 27.7849 13.0000 19.0263 14.3178 0.0000 19.0263 19.0263 14.3178 14.3178 0.0000 0.0000 19.0263
F8_2 19.0263 33.0151 32.2025 14.5602 27.7849 13.0000 19.0263 14.3178 0.0000 19.0263 19.0263 14.3178 14.3178 0.0000 0.0000 19.0263
Nσ 0.0000 19.6977 30.4138 21.2132 15.8114 22.4722 0.0000 19.1050 19.0263 0.0000 0.0000 19.1050 19.1050 19.0263 19.0263 0.0000
;